150 579013948
11 51 64 150 83 28 74 65 36 40 33 141 112 110 32 104 8 109 129 96 138 37 122 94 31 99 9 41 34 14 143 130 97 46 19 93 139 142 123 38 121 2 124 62 118 81 63 144 45 115 61 82 12 80 54 111 113 127 42 6 70 72 133 30 126 1 136 56 23 48 106 66 49 17 10 3 71 107 100 134 92 16 7 59 88 39 91 13 95 140 4 108 114 21 128 76 44 148 117 125 68 145 132 78 85 103 20 26 116 79 24 50 29 101 87 135 43 131 98 149 69 35 25 53 75 90 57 52 27 22 86 84 58 147 18 119 67 146 105 89 102 15 120 47 73 137 55 60 77 5 
